# Solution for model FSG
# Objective value = 4.6069514982815770e+02
x_0_1 0
x_0_2 0
x_0_3 1
x_0_4 1
x_0_5 0
x_0_6 1
x_0_7 0
x_0_8 0
x_0_9 0
x_0_10 0
x_1_2 0
x_1_3 0
x_1_4 0
x_1_5 0
x_1_6 0
x_1_7 0
x_1_8 0
x_1_9 1
x_1_10 0
x_2_1 0
x_2_3 0
x_2_4 0
x_2_5 0
x_2_6 0
x_2_7 0
x_2_8 1
x_2_9 0
x_2_10 0
x_3_1 0
x_3_2 0
x_3_4 0
x_3_5 1
x_3_6 0
x_3_7 0
x_3_8 0
x_3_9 0
x_3_10 0
x_4_1 1
x_4_2 0
x_4_3 0
x_4_5 0
x_4_6 0
x_4_7 0
x_4_8 0
x_4_9 0
x_4_10 0
x_5_1 0
x_5_2 0
x_5_3 0
x_5_4 0
x_5_6 0
x_5_7 1
x_5_8 0
x_5_9 0
x_5_10 0
x_6_1 0
x_6_2 1
x_6_3 0
x_6_4 0
x_6_5 0
x_6_7 0
x_6_8 0
x_6_9 0
x_6_10 0
x_7_1 0
x_7_2 0
x_7_3 0
x_7_4 0
x_7_5 0
x_7_6 0
x_7_8 0
x_7_9 0
x_7_10 1
U_1_1 0
U_1_2 0
U_1_3 1
U_2_1 0
U_2_2 0
U_2_3 1
U_3_1 1
U_3_2 0
U_3_3 0
U_4_1 0
U_4_2 0
U_4_3 1
U_5_1 0
U_5_2 1
U_5_3 0
U_6_1 0
U_6_2 0
U_6_3 1
U_7_1 0
U_7_2 1
U_7_3 0
U_8_1 0
U_8_2 0
U_8_3 1
U_9_1 0
U_9_2 0
U_9_3 1
U_10_1 0
U_10_2 0
U_10_3 1
TBar_0 0
TBar_1 3.2751908428709065e+01
TBar_2 3.6632231901856265e+01
TBar_3 2.9681644159311631e+00
TBar_4 30
TBar_5 15
TBar_6 30
TBar_7 30
TBar_8 41.4054278961561
TBar_9 3.6748106621992278e+01
TBar_10 4.4424318166691975e+01
y_0_1_1 0
y_0_1_2 0
y_0_1_3 0
y_0_1_4 0
y_0_1_5 0
y_0_2_1 0
y_0_2_2 0
y_0_2_3 0
y_0_2_4 0
y_0_2_5 0
y_0_3_1 0
y_0_3_2 0
y_0_3_3 0
y_0_3_4 0
y_0_3_5 0
y_0_4_1 0
y_0_4_2 0
y_0_4_3 0
y_0_4_4 0
y_0_4_5 0
y_0_5_1 0
y_0_5_2 0
y_0_5_3 0
y_0_5_4 0
y_0_5_5 0
y_0_6_1 0
y_0_6_2 0
y_0_6_3 0
y_0_6_4 0
y_0_6_5 0
y_0_7_1 0
y_0_7_2 0
y_0_7_3 0
y_0_7_4 0
y_0_7_5 0
y_0_8_1 0
y_0_8_2 0
y_0_8_3 0
y_0_8_4 0
y_0_8_5 0
y_0_9_1 0
y_0_9_2 0
y_0_9_3 0
y_0_9_4 0
y_0_9_5 0
y_0_10_1 0
y_0_10_2 0
y_0_10_3 0
y_0_10_4 0
y_0_10_5 0
y_1_2_1 0
y_1_2_2 0
y_1_2_3 0
y_1_2_4 0
y_1_2_5 0
y_1_3_1 0
y_1_3_2 0
y_1_3_3 0
y_1_3_4 0
y_1_3_5 0
y_1_4_1 0
y_1_4_2 0
y_1_4_3 0
y_1_4_4 0
y_1_4_5 0
y_1_5_1 0
y_1_5_2 0
y_1_5_3 0
y_1_5_4 0
y_1_5_5 0
y_1_6_1 0
y_1_6_2 0
y_1_6_3 0
y_1_6_4 0
y_1_6_5 0
y_1_7_1 0
y_1_7_2 0
y_1_7_3 0
y_1_7_4 0
y_1_7_5 0
y_1_8_1 0
y_1_8_2 0
y_1_8_3 0
y_1_8_4 0
y_1_8_5 0
y_1_9_1 0
y_1_9_2 0
y_1_9_3 0
y_1_9_4 0
y_1_9_5 0
y_1_10_1 0
y_1_10_2 0
y_1_10_3 0
y_1_10_4 0
y_1_10_5 0
y_2_1_1 0
y_2_1_2 0
y_2_1_3 0
y_2_1_4 0
y_2_1_5 0
y_2_3_1 0
y_2_3_2 0
y_2_3_3 0
y_2_3_4 0
y_2_3_5 0
y_2_4_1 0
y_2_4_2 0
y_2_4_3 0
y_2_4_4 0
y_2_4_5 0
y_2_5_1 0
y_2_5_2 0
y_2_5_3 0
y_2_5_4 0
y_2_5_5 0
y_2_6_1 0
y_2_6_2 0
y_2_6_3 0
y_2_6_4 0
y_2_6_5 0
y_2_7_1 0
y_2_7_2 0
y_2_7_3 0
y_2_7_4 0
y_2_7_5 0
y_2_8_1 0
y_2_8_2 0
y_2_8_3 0
y_2_8_4 0
y_2_8_5 0
y_2_9_1 0
y_2_9_2 0
y_2_9_3 0
y_2_9_4 0
y_2_9_5 0
y_2_10_1 0
y_2_10_2 0
y_2_10_3 0
y_2_10_4 0
y_2_10_5 0
y_3_1_1 0
y_3_1_2 0
y_3_1_3 0
y_3_1_4 0
y_3_1_5 0
y_3_2_1 0
y_3_2_2 0
y_3_2_3 0
y_3_2_4 0
y_3_2_5 0
y_3_4_1 0
y_3_4_2 0
y_3_4_3 0
y_3_4_4 0
y_3_4_5 0
y_3_5_1 0
y_3_5_2 0
y_3_5_3 0
y_3_5_4 0
y_3_5_5 0
y_3_6_1 0
y_3_6_2 0
y_3_6_3 0
y_3_6_4 0
y_3_6_5 0
y_3_7_1 0
y_3_7_2 0
y_3_7_3 0
y_3_7_4 0
y_3_7_5 0
y_3_8_1 0
y_3_8_2 0
y_3_8_3 0
y_3_8_4 0
y_3_8_5 0
y_3_9_1 0
y_3_9_2 0
y_3_9_3 0
y_3_9_4 0
y_3_9_5 0
y_3_10_1 0
y_3_10_2 0
y_3_10_3 0
y_3_10_4 0
y_3_10_5 0
y_4_1_1 0
y_4_1_2 0
y_4_1_3 0
y_4_1_4 0
y_4_1_5 0
y_4_2_1 0
y_4_2_2 0
y_4_2_3 0
y_4_2_4 0
y_4_2_5 0
y_4_3_1 0
y_4_3_2 0
y_4_3_3 0
y_4_3_4 0
y_4_3_5 0
y_4_5_1 0
y_4_5_2 0
y_4_5_3 0
y_4_5_4 0
y_4_5_5 0
y_4_6_1 0
y_4_6_2 0
y_4_6_3 0
y_4_6_4 0
y_4_6_5 0
y_4_7_1 0
y_4_7_2 0
y_4_7_3 0
y_4_7_4 0
y_4_7_5 0
y_4_8_1 0
y_4_8_2 0
y_4_8_3 0
y_4_8_4 0
y_4_8_5 0
y_4_9_1 0
y_4_9_2 0
y_4_9_3 0
y_4_9_4 0
y_4_9_5 0
y_4_10_1 0
y_4_10_2 0
y_4_10_3 0
y_4_10_4 0
y_4_10_5 0
y_5_1_1 0
y_5_1_2 0
y_5_1_3 0
y_5_1_4 0
y_5_1_5 0
y_5_2_1 0
y_5_2_2 0
y_5_2_3 0
y_5_2_4 0
y_5_2_5 0
y_5_3_1 0
y_5_3_2 0
y_5_3_3 0
y_5_3_4 0
y_5_3_5 0
y_5_4_1 0
y_5_4_2 0
y_5_4_3 0
y_5_4_4 0
y_5_4_5 0
y_5_6_1 0
y_5_6_2 0
y_5_6_3 0
y_5_6_4 0
y_5_6_5 0
y_5_7_1 0
y_5_7_2 0
y_5_7_3 0
y_5_7_4 0
y_5_7_5 0
y_5_8_1 0
y_5_8_2 0
y_5_8_3 0
y_5_8_4 0
y_5_8_5 0
y_5_9_1 0
y_5_9_2 0
y_5_9_3 0
y_5_9_4 0
y_5_9_5 0
y_5_10_1 0
y_5_10_2 0
y_5_10_3 0
y_5_10_4 0
y_5_10_5 0
y_6_1_1 0
y_6_1_2 0
y_6_1_3 0
y_6_1_4 0
y_6_1_5 0
y_6_2_1 0
y_6_2_2 0
y_6_2_3 0
y_6_2_4 0
y_6_2_5 0
y_6_3_1 0
y_6_3_2 0
y_6_3_3 0
y_6_3_4 0
y_6_3_5 0
y_6_4_1 0
y_6_4_2 0
y_6_4_3 0
y_6_4_4 0
y_6_4_5 0
y_6_5_1 0
y_6_5_2 0
y_6_5_3 0
y_6_5_4 0
y_6_5_5 0
y_6_7_1 0
y_6_7_2 0
y_6_7_3 0
y_6_7_4 0
y_6_7_5 0
y_6_8_1 0
y_6_8_2 0
y_6_8_3 0
y_6_8_4 0
y_6_8_5 0
y_6_9_1 0
y_6_9_2 0
y_6_9_3 0
y_6_9_4 0
y_6_9_5 0
y_6_10_1 0
y_6_10_2 0
y_6_10_3 0
y_6_10_4 0
y_6_10_5 0
y_7_1_1 0
y_7_1_2 0
y_7_1_3 0
y_7_1_4 0
y_7_1_5 0
y_7_2_1 0
y_7_2_2 0
y_7_2_3 0
y_7_2_4 0
y_7_2_5 0
y_7_3_1 0
y_7_3_2 0
y_7_3_3 0
y_7_3_4 0
y_7_3_5 0
y_7_4_1 0
y_7_4_2 0
y_7_4_3 0
y_7_4_4 0
y_7_4_5 0
y_7_5_1 0
y_7_5_2 0
y_7_5_3 0
y_7_5_4 0
y_7_5_5 0
y_7_6_1 0
y_7_6_2 0
y_7_6_3 0
y_7_6_4 0
y_7_6_5 0
y_7_8_1 0
y_7_8_2 0
y_7_8_3 0
y_7_8_4 0
y_7_8_5 0
y_7_9_1 0
y_7_9_2 0
y_7_9_3 0
y_7_9_4 0
y_7_9_5 0
y_7_10_1 0
y_7_10_2 1
y_7_10_3 1
y_7_10_4 1
y_7_10_5 1
Q_0_1 0
Q_0_2 0
Q_0_3 0
Q_0_4 0
Q_0_5 0
Q_1_1 8.3174999999999770e+01
Q_1_2 8.5784999999999783e+01
Q_1_3 9.4634999999999792e+01
Q_1_4 8.8839999999999776e+01
Q_1_5 9.6174999999999784e+01
Q_2_1 127.45
Q_2_2 1.2232500000000044e+02
Q_2_3 1.2363500000000043e+02
Q_2_4 1.3672500000000042e+02
Q_2_5 152.055
Q_3_1 3.2679999999999417e+01
Q_3_2 3.4839999999999421e+01
Q_3_3 4.2459999999999418e+01
Q_3_4 3.0909999999999417e+01
Q_3_5 3.0954999999999416e+01
Q_4_1 3.7655000000000072e+01
Q_4_2 32.95
Q_4_3 3.9090000000000074e+01
Q_4_4 3.2770000000000074e+01
Q_4_5 4.0425000000000068e+01
Q_5_1 7.1155000000000072e+01
Q_5_2 7.8415000000000077e+01
Q_5_3 9.0375000000000057e+01
Q_5_4 8.3095000000000070e+01
Q_5_5 7.8885000000000076e+01
Q_6_1 6.1120000000000289e+01
Q_6_2 5.8455000000000290e+01
Q_6_3 54.95
Q_6_4 6.3710000000000292e+01
Q_6_5 7.5930000000000291e+01
Q_7_1 1.5745499999999942e+02
Q_7_2 1.6158999999999943e+02
Q_7_3 1.8025999999999942e+02
Q_7_4 1.7048999999999944e+02
Q_7_5 1.8259499999999943e+02
Q_8_1 127.45
Q_8_2 1.2232500000000044e+02
Q_8_3 1.2363500000000043e+02
Q_8_4 1.3672500000000042e+02
Q_8_5 152.055
Q_9_1 8.3174999999999770e+01
Q_9_2 8.5784999999999783e+01
Q_9_3 9.4634999999999792e+01
Q_9_4 8.8839999999999776e+01
Q_9_5 9.6174999999999784e+01
Q_10_1 1.5745499999999942e+02
Q_10_2 1.6158999999999943e+02
Q_10_3 1.8025999999999942e+02
Q_10_4 1.7048999999999944e+02
Q_10_5 1.8259499999999943e+02
R_8_1 0
R_8_2 0
R_8_3 0
R_8_4 0
R_8_5 2.0550000000000068e+00
R_9_1 0
R_9_2 0
R_9_3 0
R_9_4 0
R_9_5 0
R_10_1 7.4549999999994014e+00
R_10_2 1.1589999999999435e+01
R_10_3 3.0259999999999422e+01
R_10_4 2.0489999999999441e+01
R_10_5 3.2594999999999430e+01
L_1_1 0
L_1_2 0
L_1_3 0
L_1_4 0
L_1_5 0
L_2_1 0
L_2_2 0
L_2_3 0
L_2_4 0
L_2_5 0
L_3_1 13.115
L_3_2 7.38
L_3_3 9.74
L_3_4 8.3700000000000010e+00
L_3_5 9.8799999999999990e+00
L_4_1 0
L_4_2 0
L_4_3 0
L_4_4 0
L_4_5 0
L_5_1 4.55
L_5_2 7.215
L_5_3 5.605
L_5_4 6.59
L_5_5 3.965
L_6_1 0
L_6_2 0
L_6_3 0
L_6_4 0
L_6_5 0
L_7_1 3.11
L_7_2 5.145
L_7_3 6.37
L_7_4 4.545
L_7_5 7.44
rho_1_1 0
rho_1_2 0
rho_1_3 0
rho_1_4 0
rho_1_5 0
rho_2_1 0
rho_2_2 0
rho_2_3 0
rho_2_4 0
rho_2_5 1
rho_3_1 0
rho_3_2 0
rho_3_3 0
rho_3_4 0
rho_3_5 0
rho_4_1 0
rho_4_2 0
rho_4_3 0
rho_4_4 0
rho_4_5 0
rho_5_1 0
rho_5_2 0
rho_5_3 0
rho_5_4 0
rho_5_5 0
rho_6_1 0
rho_6_2 0
rho_6_3 0
rho_6_4 0
rho_6_5 0
rho_7_1 1
rho_7_2 1
rho_7_3 1
rho_7_4 1
rho_7_5 1
lambd_1_1 0
lambd_1_2 0
lambd_1_3 0
lambd_1_4 0
lambd_1_5 0
lambd_2_1 0
lambd_2_2 0
lambd_2_3 0
lambd_2_4 0
lambd_2_5 0
lambd_3_1 0
lambd_3_2 0
lambd_3_3 0
lambd_3_4 0
lambd_3_5 0
lambd_4_1 0
lambd_4_2 0
lambd_4_3 0
lambd_4_4 0
lambd_4_5 0
lambd_5_1 0
lambd_5_2 0
lambd_5_3 0
lambd_5_4 0
lambd_5_5 0
lambd_6_1 0
lambd_6_2 0
lambd_6_3 0
lambd_6_4 0
lambd_6_5 0
lambd_7_1 0
lambd_7_2 0
lambd_7_3 0
lambd_7_4 0
lambd_7_5 0
alpha_1_1 0
alpha_1_2 0
alpha_1_3 0
alpha_1_4 0
alpha_1_5 0
alpha_2_1 0
alpha_2_2 0
alpha_2_3 0
alpha_2_4 0
alpha_2_5 0
alpha_3_1 0
alpha_3_2 0
alpha_3_3 0
alpha_3_4 0
alpha_3_5 0
alpha_4_1 0
alpha_4_2 0
alpha_4_3 0
alpha_4_4 0
alpha_4_5 0
alpha_5_1 0
alpha_5_2 0
alpha_5_3 0
alpha_5_4 0
alpha_5_5 0
alpha_6_1 0
alpha_6_2 0
alpha_6_3 0
alpha_6_4 0
alpha_6_5 0
alpha_7_1 0
alpha_7_2 1
alpha_7_3 1
alpha_7_4 1
alpha_7_5 1
